p cnf 180 721
1 91 0
-1 -91 0
1 2 92 0
-1 -2 0
-1 -92 0
-2 -92 0
2 3 93 0
-2 -3 0
-2 -93 0
-3 -93 0
3 4 94 0
-3 -4 0
-3 -94 0
-4 -94 0
4 5 95 0
-4 -5 0
-4 -95 0
-5 -95 0
5 6 96 0
-5 -6 0
-5 -96 0
-6 -96 0
6 7 97 0
-6 -7 0
-6 -97 0
-7 -97 0
7 8 98 0
-7 -8 0
-7 -98 0
-8 -98 0
8 99 0
-8 -99 0
10 91 101 0
-10 -91 0
-10 -101 0
-91 -101 0
10 11 92 102 0
-10 -11 0
-10 -92 0
-10 -102 0
-11 -92 0
-11 -102 0
-92 -102 0
11 12 93 103 0
-11 -12 0
-11 -93 0
-11 -103 0
-12 -93 0
-12 -103 0
-93 -103 0
12 13 94 104 0
-12 -13 0
-12 -94 0
-12 -104 0
-13 -94 0
-13 -104 0
-94 -104 0
13 14 95 105 0
-13 -14 0
-13 -95 0
-13 -105 0
-14 -95 0
-14 -105 0
-95 -105 0
14 15 96 106 0
-14 -15 0
-14 -96 0
-14 -106 0
-15 -96 0
-15 -106 0
-96 -106 0
15 16 97 107 0
-15 -16 0
-15 -97 0
-15 -107 0
-16 -97 0
-16 -107 0
-97 -107 0
16 17 98 108 0
-16 -17 0
-16 -98 0
-16 -108 0
-17 -98 0
-17 -108 0
-98 -108 0
17 18 99 109 0
-17 -18 0
-17 -99 0
-17 -109 0
-18 -99 0
-18 -109 0
-99 -109 0
18 110 0
-18 -110 0
19 101 111 0
-19 -101 0
-19 -111 0
-101 -111 0
19 20 102 112 0
-19 -20 0
-19 -102 0
-19 -112 0
-20 -102 0
-20 -112 0
-102 -112 0
20 21 103 113 0
-20 -21 0
-20 -103 0
-20 -113 0
-21 -103 0
-21 -113 0
-103 -113 0
21 22 104 114 0
-21 -22 0
-21 -104 0
-21 -114 0
-22 -104 0
-22 -114 0
-104 -114 0
22 23 105 115 0
-22 -23 0
-22 -105 0
-22 -115 0
-23 -105 0
-23 -115 0
-105 -115 0
23 24 106 116 0
-23 -24 0
-23 -106 0
-23 -116 0
-24 -106 0
-24 -116 0
-106 -116 0
24 25 107 117 0
-24 -25 0
-24 -107 0
-24 -117 0
-25 -107 0
-25 -117 0
-107 -117 0
25 26 108 118 0
-25 -26 0
-25 -108 0
-25 -118 0
-26 -108 0
-26 -118 0
-108 -118 0
26 27 109 119 0
-26 -27 0
-26 -109 0
-26 -119 0
-27 -109 0
-27 -119 0
-109 -119 0
27 110 120 0
-27 -110 0
-27 -120 0
-110 -120 0
28 111 121 0
-28 -111 0
-28 -121 0
-111 -121 0
28 29 112 122 0
-28 -29 0
-28 -112 0
-28 -122 0
-29 -112 0
-29 -122 0
-112 -122 0
29 30 113 123 0
-29 -30 0
-29 -113 0
-29 -123 0
-30 -113 0
-30 -123 0
-113 -123 0
30 31 114 124 0
-30 -31 0
-30 -114 0
-30 -124 0
-31 -114 0
-31 -124 0
-114 -124 0
31 32 115 125 0
-31 -32 0
-31 -115 0
-31 -125 0
-32 -115 0
-32 -125 0
-115 -125 0
32 33 116 126 0
-32 -33 0
-32 -116 0
-32 -126 0
-33 -116 0
-33 -126 0
-116 -126 0
33 34 117 127 0
-33 -34 0
-33 -117 0
-33 -127 0
-34 -117 0
-34 -127 0
-117 -127 0
34 35 118 128 0
-34 -35 0
-34 -118 0
-34 -128 0
-35 -118 0
-35 -128 0
-118 -128 0
35 36 119 129 0
-35 -36 0
-35 -119 0
-35 -129 0
-36 -119 0
-36 -129 0
-119 -129 0
36 120 130 0
-36 -120 0
-36 -130 0
-120 -130 0
37 121 131 0
-37 -121 0
-37 -131 0
-121 -131 0
37 38 122 132 0
-37 -38 0
-37 -122 0
-37 -132 0
-38 -122 0
-38 -132 0
-122 -132 0
38 39 123 133 0
-38 -39 0
-38 -123 0
-38 -133 0
-39 -123 0
-39 -133 0
-123 -133 0
39 40 124 134 0
-39 -40 0
-39 -124 0
-39 -134 0
-40 -124 0
-40 -134 0
-124 -134 0
40 41 125 135 0
-40 -41 0
-40 -125 0
-40 -135 0
-41 -125 0
-41 -135 0
-125 -135 0
41 42 126 136 0
-41 -42 0
-41 -126 0
-41 -136 0
-42 -126 0
-42 -136 0
-126 -136 0
42 43 127 137 0
-42 -43 0
-42 -127 0
-42 -137 0
-43 -127 0
-43 -137 0
-127 -137 0
43 44 128 138 0
-43 -44 0
-43 -128 0
-43 -138 0
-44 -128 0
-44 -138 0
-128 -138 0
44 45 129 139 0
-44 -45 0
-44 -129 0
-44 -139 0
-45 -129 0
-45 -139 0
-129 -139 0
45 130 140 0
-45 -130 0
-45 -140 0
-130 -140 0
46 131 141 0
-46 -131 0
-46 -141 0
-131 -141 0
46 47 132 142 0
-46 -47 0
-46 -132 0
-46 -142 0
-47 -132 0
-47 -142 0
-132 -142 0
47 48 133 143 0
-47 -48 0
-47 -133 0
-47 -143 0
-48 -133 0
-48 -143 0
-133 -143 0
48 49 134 144 0
-48 -49 0
-48 -134 0
-48 -144 0
-49 -134 0
-49 -144 0
-134 -144 0
49 50 135 145 0
-49 -50 0
-49 -135 0
-49 -145 0
-50 -135 0
-50 -145 0
-135 -145 0
50 51 136 146 0
-50 -51 0
-50 -136 0
-50 -146 0
-51 -136 0
-51 -146 0
-136 -146 0
51 52 137 147 0
-51 -52 0
-51 -137 0
-51 -147 0
-52 -137 0
-52 -147 0
-137 -147 0
52 53 138 148 0
-52 -53 0
-52 -138 0
-52 -148 0
-53 -138 0
-53 -148 0
-138 -148 0
53 54 139 149 0
-53 -54 0
-53 -139 0
-53 -149 0
-54 -139 0
-54 -149 0
-139 -149 0
54 140 150 0
-54 -140 0
-54 -150 0
-140 -150 0
55 141 151 0
-55 -141 0
-55 -151 0
-141 -151 0
55 56 142 152 0
-55 -56 0
-55 -142 0
-55 -152 0
-56 -142 0
-56 -152 0
-142 -152 0
56 57 143 153 0
-56 -57 0
-56 -143 0
-56 -153 0
-57 -143 0
-57 -153 0
-143 -153 0
57 58 144 154 0
-57 -58 0
-57 -144 0
-57 -154 0
-58 -144 0
-58 -154 0
-144 -154 0
58 59 145 155 0
-58 -59 0
-58 -145 0
-58 -155 0
-59 -145 0
-59 -155 0
-145 -155 0
59 60 146 156 0
-59 -60 0
-59 -146 0
-59 -156 0
-60 -146 0
-60 -156 0
-146 -156 0
60 61 147 157 0
-60 -61 0
-60 -147 0
-60 -157 0
-61 -147 0
-61 -157 0
-147 -157 0
61 62 148 158 0
-61 -62 0
-61 -148 0
-61 -158 0
-62 -148 0
-62 -158 0
-148 -158 0
62 63 149 159 0
-62 -63 0
-62 -149 0
-62 -159 0
-63 -149 0
-63 -159 0
-149 -159 0
63 150 160 0
-63 -150 0
-63 -160 0
-150 -160 0
64 151 161 0
-64 -151 0
-64 -161 0
-151 -161 0
64 65 152 162 0
-64 -65 0
-64 -152 0
-64 -162 0
-65 -152 0
-65 -162 0
-152 -162 0
65 66 153 163 0
-65 -66 0
-65 -153 0
-65 -163 0
-66 -153 0
-66 -163 0
-153 -163 0
66 67 154 164 0
-66 -67 0
-66 -154 0
-66 -164 0
-67 -154 0
-67 -164 0
-154 -164 0
67 68 155 165 0
-67 -68 0
-67 -155 0
-67 -165 0
-68 -155 0
-68 -165 0
-155 -165 0
68 69 156 166 0
-68 -69 0
-68 -156 0
-68 -166 0
-69 -156 0
-69 -166 0
-156 -166 0
69 70 157 167 0
-69 -70 0
-69 -157 0
-69 -167 0
-70 -157 0
-70 -167 0
-157 -167 0
70 71 158 168 0
-70 -71 0
-70 -158 0
-70 -168 0
-71 -158 0
-71 -168 0
-158 -168 0
71 72 159 169 0
-71 -72 0
-71 -159 0
-71 -169 0
-72 -159 0
-72 -169 0
-159 -169 0
72 160 170 0
-72 -160 0
-72 -170 0
-160 -170 0
73 161 0
-73 -161 0
73 74 162 172 0
-73 -74 0
-73 -162 0
-73 -172 0
-74 -162 0
-74 -172 0
-162 -172 0
74 75 163 173 0
-74 -75 0
-74 -163 0
-74 -173 0
-75 -163 0
-75 -173 0
-163 -173 0
75 76 164 174 0
-75 -76 0
-75 -164 0
-75 -174 0
-76 -164 0
-76 -174 0
-164 -174 0
76 77 165 175 0
-76 -77 0
-76 -165 0
-76 -175 0
-77 -165 0
-77 -175 0
-165 -175 0
77 78 166 176 0
-77 -78 0
-77 -166 0
-77 -176 0
-78 -166 0
-78 -176 0
-166 -176 0
78 79 167 177 0
-78 -79 0
-78 -167 0
-78 -177 0
-79 -167 0
-79 -177 0
-167 -177 0
79 80 168 178 0
-79 -80 0
-79 -168 0
-79 -178 0
-80 -168 0
-80 -178 0
-168 -178 0
80 81 169 179 0
-80 -81 0
-80 -169 0
-80 -179 0
-81 -169 0
-81 -179 0
-169 -179 0
81 170 180 0
-81 -170 0
-81 -180 0
-170 -180 0
83 172 0
-83 -172 0
83 84 173 0
-83 -84 0
-83 -173 0
-84 -173 0
84 85 174 0
-84 -85 0
-84 -174 0
-85 -174 0
85 86 175 0
-85 -86 0
-85 -175 0
-86 -175 0
86 87 176 0
-86 -87 0
-86 -176 0
-87 -176 0
87 88 177 0
-87 -88 0
-87 -177 0
-88 -177 0
88 89 178 0
-88 -89 0
-88 -178 0
-89 -178 0
89 90 179 0
-89 -90 0
-89 -179 0
-90 -179 0
90 180 0
-90 -180 0
-91 -92 0
-93 -94 0
-94 -95 0
-95 -96 0
-96 -97 0
-97 -98 0
-98 -99 0
-101 -102 0
-102 -103 0
-103 -104 0
-104 -105 0
-105 -106 0
-106 -107 0
-107 -108 0
-108 -109 0
-109 -110 0
-111 -112 0
-113 -114 0
-115 -116 0
-116 -117 0
-117 -118 0
-118 -119 0
-119 -120 0
-121 -122 0
-122 -123 0
-124 -125 0
-125 -126 0
-126 -127 0
-127 -128 0
-128 -129 0
-129 -130 0
-131 -132 0
-133 -134 0
-134 -135 0
-135 -136 0
-136 -137 0
-137 -138 0
-138 -139 0
-139 -140 0
-141 -142 0
-143 -144 0
-144 -145 0
-145 -146 0
-146 -147 0
-147 -148 0
-148 -149 0
-149 -150 0
-151 -152 0
-152 -153 0
-153 -154 0
-154 -155 0
-155 -156 0
-156 -157 0
-157 -158 0
-158 -159 0
-159 -160 0
-161 -162 0
-163 -164 0
-164 -165 0
-165 -166 0
-166 -167 0
-167 -168 0
-168 -169 0
-169 -170 0
-172 -173 0
-174 -175 0
-175 -176 0
-176 -177 0
-177 -178 0
-178 -179 0
-179 -180 0
-108 -18 -27 0
-128 -36 -45 0
-138 -54 -45 0
-148 -63 -54 0
-158 -72 -63 0
-168 -81 -72 0
-178 -81 -90 0
-97 -17 -8 0
-107 -26 -110 -17 0
-107 -17 -26 0
-117 -120 -35 -26 0
-117 -35 -26 0
-127 -130 -35 -44 0
-137 -140 -44 -53 0
-137 -53 -44 0
-147 -150 -53 -62 0
-147 -53 -62 0
-157 -160 -62 -71 0
-157 -62 -71 0
-167 -170 -71 -80 0
-167 -71 -80 0
-177 -180 -89 -80 0
-177 -89 -80 0
-96 -99 -16 -7 0
-106 -18 -27 -25 -16 0
-109 -106 -16 -25 0
-106 -16 -25 0
-116 -119 -34 -25 0
-116 -34 -25 0
-126 -45 -36 -43 -34 0
-126 -129 -43 -34 0
-126 -34 -43 0
-136 -54 -45 -52 -43 0
-136 -139 -43 -52 0
-136 -43 -52 0
-146 -63 -54 -61 -52 0
-146 -149 -52 -61 0
-146 -61 -52 0
-156 -72 -63 -70 -61 0
-156 -159 -70 -61 0
-156 -70 -61 0
-166 -81 -72 -79 -70 0
-166 -169 -79 -70 0
-166 -79 -70 0
-176 -81 -90 -88 -79 0
-179 -176 -79 -88 0
-176 -79 -88 0
-95 -17 -8 -15 -6 0
-98 -95 -6 -15 0
-95 -6 -15 0
-105 -110 -26 -24 -17 -15 0
-105 -26 -17 -24 -15 0
-105 -108 -24 -15 0
-105 -15 -24 0
-115 -120 -35 -33 -26 -24 0
-115 -35 -26 -33 -24 0
-115 -118 -24 -33 0
-115 -24 -33 0
-125 -130 -44 -42 -35 -33 0
-125 -44 -35 -42 -33 0
-125 -128 -42 -33 0
-125 -33 -42 0
-135 -140 -53 -51 -44 -42 0
-135 -53 -44 -51 -42 0
-135 -138 -51 -42 0
-135 -42 -51 0
-145 -150 -51 -60 -53 -62 0
-145 -53 -62 -60 -51 0
-145 -148 -51 -60 0
-155 -160 -62 -69 -71 -60 0
-155 -158 -60 -69 0
-155 -60 -69 0
-165 -170 -71 -80 -78 -69 0
-165 -80 -71 -78 -69 0
-165 -168 -69 -78 0
-165 -69 -78 0
-175 -180 -80 -87 -89 -78 0
-175 -80 -89 -87 -78 0
-178 -175 -78 -87 0
-175 -87 -78 0
-94 -99 -16 -14 -7 -5 0
-94 -16 -14 -7 -5 0
-97 -94 -5 -14 0
-94 -5 -14 0
-104 -18 -27 -23 -25 -16 -14 0
-109 -104 -14 -23 -16 -25 0
-104 -16 -25 -23 -14 0
-104 -107 -23 -14 0
-104 -23 -14 0
-124 -45 -36 -41 -43 -34 -32 0
-124 -129 -41 -34 -32 0
-124 -43 -34 -41 -32 0
-124 -127 -32 -41 0
-124 -32 -41 0
-134 -54 -45 -50 -52 -43 -41 0
-134 -139 -52 -50 -43 -41 0
-134 -52 -43 -50 -41 0
-134 -137 -41 -50 0
-134 -41 -50 0
-144 -63 -54 -59 -61 -52 -50 0
-144 -149 -61 -59 -52 -50 0
-144 -61 -52 -59 -50 0
-144 -147 -59 -50 0
-144 -59 -50 0
-154 -72 -63 -70 -68 -61 -59 0
-154 -159 -70 -61 -68 -59 0
-154 -61 -70 -68 -59 0
-164 -169 -70 -77 -79 -68 0
-164 -79 -70 -77 -68 0
-164 -167 -68 -77 0
-164 -77 -68 0
-174 -81 -90 -86 -88 -79 -77 0
-179 -174 -77 -86 -79 -88 0
-174 -79 -88 -86 -77 0
-177 -174 -77 -86 0
-174 -77 -86 0
-93 -17 -8 -13 -15 -6 -4 0
-98 -93 -4 -13 -6 -15 0
-93 -15 -6 -13 -4 0
-96 -93 -4 -13 0
-93 -13 -4 0
-113 -120 -35 -33 -31 -26 -24 -22 0
-113 -35 -26 -31 -33 -24 -22 0
-113 -118 -33 -31 -24 -22 0
-113 -33 -24 -31 -22 0
-113 -116 -22 -31 0
-113 -22 -31 0
-123 -130 -44 -31 -40 -35 -33 -42 0
-123 -44 -35 -40 -42 -33 -31 0
-123 -128 -42 -40 -33 -31 0
-123 -42 -33 -40 -31 0
-123 -126 -40 -31 0
-123 -40 -31 0
-143 -150 -62 -60 -58 -53 -51 -49 0
-143 -62 -53 -58 -60 -51 -49 0
-143 -148 -60 -58 -51 -49 0
-143 -51 -60 -58 -49 0
-143 -146 -58 -49 0
-143 -49 -58 0
-153 -160 -71 -69 -67 -62 -60 -58 0
-153 -71 -62 -67 -69 -60 -58 0
-153 -158 -69 -67 -60 -58 0
-153 -69 -60 -67 -58 0
-153 -156 -58 -67 0
-153 -67 -58 0
-163 -170 -71 -80 -78 -76 -69 -67 0
-163 -71 -80 -76 -78 -69 -67 0
-163 -168 -78 -76 -69 -67 0
-163 -69 -78 -76 -67 0
-163 -166 -76 -67 0
-163 -76 -67 0
-102 -27 -18 -23 -21 -25 -16 -14 -12 0
-109 -102 -12 -21 -14 -23 -16 -25 0
-102 -25 -16 -21 -23 -14 -12 0
-102 -107 -23 -21 -14 -12 0
-102 -23 -14 -21 -12 0
-102 -105 -12 -21 0
-102 -21 -12 0
-122 -45 -36 -41 -39 -43 -34 -32 -30 0
-122 -43 -34 -39 -41 -32 -30 0
-122 -127 -41 -39 -32 -30 0
-122 -41 -32 -39 -30 0
-122 -125 -39 -30 0
-122 -30 -39 0
-132 -45 -54 -52 -50 -48 -43 -41 -39 0
-132 -139 -52 -50 -48 -43 -41 -39 0
-132 -52 -43 -50 -48 -41 -39 0
-132 -137 -50 -48 -41 -39 0
-132 -41 -50 -48 -39 0
-132 -135 -39 -48 0
-132 -39 -48 0
-152 -72 -63 -68 -66 -70 -61 -59 -57 0
-152 -68 -70 -66 -61 -59 -57 0
-178 -175 -78 -87 0
-175 -87 -78 0
-94 -99 -16 -14 -7 -5 0
-94 -16 -14 -7 -5 0
-97 -94 -5 -14 0
-94 -5 -14 0
-104 -18 -27 -23 -25 -16 -14 0
-109 -104 -14 -23 -16 -25 0
-104 -16 -25 -23 -14 0
-104 -107 -23 -14 0
-104 -23 -14 0
-124 -45 -36 -41 -43 -34 -32 0
-124 -129 -41 -34 -32 0
-124 -43 -34 -41 -32 0
-124 -127 -32 -41 0
-124 -32 -41 0
-134 -54 -45 -50 -52 -43 -41 0
-134 -139 -52 -50 -43 -41 0
-134 -52 -43 -50 -41 0
-134 -137 -41 -50 0
-134 -41 -50 0
-144 -63 -54 -59 -61 -52 -50 0
-144 -149 -61 -59 -52 -50 0
-144 -61 -52 -59 -50 0
-144 -147 -59 -50 0
-144 -59 -50 0
-154 -72 -63 -70 -68 -61 -59 0
-154 -159 -70 -61 -68 -59 0
-154 -61 -70 -68 -59 0
-164 -169 -70 -77 -79 -68 0
-164 -79 -70 -77 -68 0
-164 -167 -68 -77 0
-164 -77 -68 0
-174 -81 -90 -86 -88 -79 -77 0
-179 -174 -77 -86 -79 -88 0
-174 -79 -88 -86 -77 0
-177 -174 -77 -86 0
-174 -77 -86 0
-93 -17 -8 -13 -15 -6 -4 0
-98 -93 -4 -13 -6 -15 0
-178 -175 -78 -87 0
